proyfinal/src/viki/013/experimentInOfficeAgust.take6.output/73bc6947-02d8-49ad-accb-80ef46a12041.als.dat
{'cnf.clauses': '118081',
 'cnf.totvars': '69608',
 'conflict literals': '175',
 'conflicts': '36',
 'decisions': '2540',
 'memused.mb': '16.72',
 'outcome': 'UNSAT',
 'propagations': '71121',
 'restarts': '1',
 'solver.msecs': 26,
 'task.msecs': 80}
