proyfinal/src/viki/013/experimentInOfficeAgust.take6.output/73bc6947-02d8-49ad-accb-80ef46a12041.als.out
Reading from standard input... Use '--help' for help.
============================[ Problem Statistics ]=============================
|                                                                             |
|  Number of variables:         69608                                         |
|  Number of clauses:          118081                                         |
|  Parse time:                   0.02 s                                       |
|                                                                             |
============================[ Search Statistics ]==============================
| Conflicts |          ORIGINAL         |          LEARNT          | Progress |
|           |    Vars  Clauses Literals |    Limit  Clauses Lit/Cl |          |
===============================================================================
===============================================================================
restarts              : 1
conflicts             : 36             (1355 /sec)
decisions             : 2540           (0.00 % random) (95579 /sec)
propagations          : 71121          (2676237 /sec)
conflict literals     : 175            (18.60 % deleted)
Memory used           : 16.72 MB
CPU time              : 0.026575 s

UNSATISFIABLE
